6942,25539,23405,6064,13050,17494,2038,16879,9863,17075,16488,20928,2657,21683,25864,24772,9956,2938,12110,6280,15047,2533,8790,8793,14607,24031,14520,7099,20299,19301,18316,17771,14010,16740,6146,17225,3729,20838,10497,21051,6942